
Gurobi 6.5.0 (linux64) logging started Thu 04 Feb 2016 09:52:11 AM PST


Gurobi 7.5.1 (win64) logging started 02/27/18 14:35:07

Academic license - for non-commercial use only
Optimize a model with 35 rows, 198058 columns and 2323636 nonzeros
Variable types: 0 continuous, 198058 integer (198058 binary)
Coefficient statistics:
  Matrix range     [2e-09, 4e+07]
  Objective range  [3e+00, 1e+08]
  Bounds range     [1e+00, 1e+00]
  RHS range        [1e+03, 1e+04]
Warning: Model contains large matrix coefficient range
         Consider reformulating model or setting NumericFocus parameter
         to avoid numerical issues.
Found heuristic solution: objective 0

Explored 0 nodes (0 simplex iterations) in 0.10 seconds
Thread count was 1 (of 16 available processors)

Solution count 1: 0 

Optimal solution found (tolerance 1.00e-04)
Best objective 0.000000000000e+00, best bound 0.000000000000e+00, gap 0.0000%

Gurobi 7.5.1 (win64) logging started 02/27/18 14:44:20

Academic license - for non-commercial use only
Optimize a model with 36 rows, 198058 columns and 2509506 nonzeros
Variable types: 0 continuous, 198058 integer (198058 binary)
Coefficient statistics:
  Matrix range     [2e-09, 4e+07]
  Objective range  [3e+00, 1e+08]
  Bounds range     [1e+00, 1e+00]
  RHS range        [1e+03, 2e+04]
Warning: Model contains large matrix coefficient range
         Consider reformulating model or setting NumericFocus parameter
         to avoid numerical issues.
Found heuristic solution: objective 2.73386e+09
Presolve removed 31 rows and 187232 columns
Presolve time: 0.32s
Presolved: 5 rows, 10826 columns, 54124 nonzeros
Variable types: 0 continuous, 10826 integer (10826 binary)
Presolved: 5 rows, 10826 columns, 54124 nonzeros


Root relaxation: objective 1.855398e+08, 3 iterations, 0.03 seconds

    Nodes    |    Current Node    |     Objective Bounds      |     Work
 Expl Unexpl |  Obj  Depth IntInf | Incumbent    BestBd   Gap | It/Node Time

     0     0 1.8554e+08    0    2 2.7339e+09 1.8554e+08  93.2%     -    0s
H    0     0                    1.860524e+08 1.8554e+08  0.28%     -    0s
H    0     0                    1.855888e+08 1.8554e+08  0.03%     -    0s
H    0     0                    1.855514e+08 1.8554e+08  0.01%     -    0s

Explored 1 nodes (3 simplex iterations) in 0.67 seconds
Thread count was 16 (of 16 available processors)

Solution count 4: 1.85551e+08 1.85589e+08 1.86052e+08 2.73386e+09 

Optimal solution found (tolerance 1.00e-04)
Best objective 1.855514151780e+08, best bound 1.855397601753e+08, gap 0.0063%

Gurobi 7.5.1 (win64) logging started 02/27/18 14:44:22

Academic license - for non-commercial use only
Optimize a model with 36 rows, 198058 columns and 2509506 nonzeros
Variable types: 0 continuous, 198058 integer (198058 binary)
Coefficient statistics:
  Matrix range     [2e-09, 4e+07]
  Objective range  [9e-01, 4e+07]
  Bounds range     [1e+00, 1e+00]
  RHS range        [1e+03, 2e+04]
Warning: Model contains large matrix coefficient range
         Consider reformulating model or setting NumericFocus parameter
         to avoid numerical issues.
Found heuristic solution: objective 2.42685e+08
Presolve removed 31 rows and 187232 columns
Presolve time: 0.28s
Presolved: 5 rows, 10826 columns, 54124 nonzeros
Variable types: 0 continuous, 10826 integer (10826 binary)
Presolved: 5 rows, 10826 columns, 54124 nonzeros


Root relaxation: objective 1.727265e+08, 20 iterations, 0.03 seconds

    Nodes    |    Current Node    |     Objective Bounds      |     Work
 Expl Unexpl |  Obj  Depth IntInf | Incumbent    BestBd   Gap | It/Node Time

     0     0 1.7273e+08    0    3 2.4268e+08 1.7273e+08  28.8%     -    0s
H    0     0                    1.727295e+08 1.7273e+08  0.00%     -    0s

Explored 1 nodes (20 simplex iterations) in 0.57 seconds
Thread count was 16 (of 16 available processors)

Solution count 2: 1.72729e+08 2.42685e+08 

Optimal solution found (tolerance 1.00e-04)
Best objective 1.727294895213e+08, best bound 1.727265043560e+08, gap 0.0017%

Gurobi 7.5.1 (win64) logging started 02/27/18 14:44:23

Academic license - for non-commercial use only
Optimize a model with 36 rows, 198058 columns and 2509506 nonzeros
Variable types: 0 continuous, 198058 integer (198058 binary)
Coefficient statistics:
  Matrix range     [2e-09, 4e+07]
  Objective range  [7e-07, 1e+04]
  Bounds range     [1e+00, 1e+00]
  RHS range        [1e+03, 2e+04]
Warning: Model contains large matrix coefficient range
         Consider reformulating model or setting NumericFocus parameter
         to avoid numerical issues.
Found heuristic solution: objective 2559.31
Presolve removed 31 rows and 187232 columns
Presolve time: 0.28s
Presolved: 5 rows, 10826 columns, 54124 nonzeros
Variable types: 0 continuous, 10826 integer (10826 binary)
Presolved: 5 rows, 10826 columns, 54124 nonzeros


Root relaxation: objective 1.432998e+03, 8 iterations, 0.02 seconds

    Nodes    |    Current Node    |     Objective Bounds      |     Work
 Expl Unexpl |  Obj  Depth IntInf | Incumbent    BestBd   Gap | It/Node Time

     0     0 1432.99760    0    2 2559.30869 1432.99760  44.0%     -    0s
H    0     0                    1433.0688260 1432.99760  0.00%     -    0s

Explored 1 nodes (8 simplex iterations) in 0.56 seconds
Thread count was 16 (of 16 available processors)

Solution count 2: 1433.07 2559.31 

Optimal solution found (tolerance 1.00e-04)
Best objective 1.433068826002e+03, best bound 1.432997598956e+03, gap 0.0050%

Gurobi 7.5.1 (win64) logging started 02/27/18 14:44:24

Academic license - for non-commercial use only
Optimize a model with 35 rows, 198058 columns and 2508908 nonzeros
Variable types: 0 continuous, 198058 integer (198058 binary)
Coefficient statistics:
  Matrix range     [2e-09, 4e+07]
  Objective range  [3e+00, 1e+08]
  Bounds range     [1e+00, 1e+00]
  RHS range        [1e+04, 2e+04]
Warning: Model contains large matrix coefficient range
         Consider reformulating model or setting NumericFocus parameter
         to avoid numerical issues.
Found heuristic solution: objective 6.62989e+09
Presolve removed 30 rows and 186636 columns
Presolve time: 0.30s
Presolved: 5 rows, 11422 columns, 57104 nonzeros
Variable types: 0 continuous, 11422 integer (11422 binary)
Presolved: 5 rows, 11422 columns, 57104 nonzeros


Root relaxation: objective 5.322426e+08, 3 iterations, 0.02 seconds

    Nodes    |    Current Node    |     Objective Bounds      |     Work
 Expl Unexpl |  Obj  Depth IntInf | Incumbent    BestBd   Gap | It/Node Time

     0     0 5.3224e+08    0    2 6.6299e+09 5.3224e+08  92.0%     -    0s
H    0     0                    5.466914e+08 5.3224e+08  2.64%     -    0s
H    0     0                    5.327015e+08 5.3224e+08  0.09%     -    0s
H    0     0                    5.326837e+08 5.3224e+08  0.08%     -    0s
H    0     0                    5.326807e+08 5.3224e+08  0.08%     -    0s
     0     0 5.3237e+08    0    3 5.3268e+08 5.3237e+08  0.06%     -    1s
     0     0 5.3237e+08    0    2 5.3268e+08 5.3237e+08  0.06%     -    1s
     0     0 5.3237e+08    0    3 5.3268e+08 5.3237e+08  0.06%     -    1s
H    0     0                    5.326780e+08 5.3237e+08  0.06%     -    1s
     0     0 5.3243e+08    0    4 5.3268e+08 5.3243e+08  0.05%     -    1s
     0     0 5.3243e+08    0    2 5.3268e+08 5.3243e+08  0.05%     -    1s
     0     0 5.3243e+08    0    3 5.3268e+08 5.3243e+08  0.05%     -    1s
     0     0 5.3243e+08    0    4 5.3268e+08 5.3243e+08  0.05%     -    1s
     0     0 5.3243e+08    0    5 5.3268e+08 5.3243e+08  0.05%     -    1s
     0     0 5.3243e+08    0    2 5.3268e+08 5.3243e+08  0.05%     -    1s
     0     0 5.3243e+08    0    3 5.3268e+08 5.3243e+08  0.05%     -    1s
     0     0 5.3243e+08    0    4 5.3268e+08 5.3243e+08  0.05%     -    1s
     0     0 5.3243e+08    0    5 5.3268e+08 5.3243e+08  0.05%     -    1s
     0     0 5.3244e+08    0    6 5.3268e+08 5.3244e+08  0.05%     -    1s
     0     0 5.3244e+08    0    7 5.3268e+08 5.3244e+08  0.05%     -    1s
     0     0 5.3246e+08    0    7 5.3268e+08 5.3246e+08  0.04%     -    1s
     0     0 5.3265e+08    0    2 5.3268e+08 5.3265e+08  0.01%     -    1s

Cutting planes:
  MIR: 5

Explored 1 nodes (58 simplex iterations) in 1.76 seconds
Thread count was 16 (of 16 available processors)

Solution count 6: 5.32678e+08 5.32681e+08 5.32684e+08 ... 6.62989e+09

Optimal solution found (tolerance 1.00e-04)
Best objective 5.326780264634e+08, best bound 5.326479787467e+08, gap 0.0056%

Gurobi 7.5.1 (win64) logging started 02/27/18 14:44:27

Academic license - for non-commercial use only
Optimize a model with 35 rows, 198058 columns and 2508908 nonzeros
Variable types: 0 continuous, 198058 integer (198058 binary)
Coefficient statistics:
  Matrix range     [2e-09, 4e+07]
  Objective range  [9e-01, 4e+07]
  Bounds range     [1e+00, 1e+00]
  RHS range        [1e+04, 2e+04]
Warning: Model contains large matrix coefficient range
         Consider reformulating model or setting NumericFocus parameter
         to avoid numerical issues.
Found heuristic solution: objective 5.49511e+08
Presolve removed 30 rows and 186636 columns
Presolve time: 0.31s
Presolved: 5 rows, 11422 columns, 57104 nonzeros
Variable types: 0 continuous, 11422 integer (11422 binary)
Presolved: 5 rows, 11422 columns, 57104 nonzeros


Root relaxation: objective 3.639897e+08, 20 iterations, 0.03 seconds

    Nodes    |    Current Node    |     Objective Bounds      |     Work
 Expl Unexpl |  Obj  Depth IntInf | Incumbent    BestBd   Gap | It/Node Time

     0     0 3.6399e+08    0    4 5.4951e+08 3.6399e+08  33.8%     -    0s
H    0     0                    3.640708e+08 3.6399e+08  0.02%     -    0s
H    0     0                    3.640453e+08 3.6399e+08  0.02%     -    0s
H    0     0                    3.639949e+08 3.6399e+08  0.00%     -    0s

Explored 1 nodes (20 simplex iterations) in 0.69 seconds
Thread count was 16 (of 16 available processors)

Solution count 4: 3.63995e+08 3.64045e+08 3.64071e+08 5.49511e+08 

Optimal solution found (tolerance 1.00e-04)
Best objective 3.639948775219e+08, best bound 3.639896648616e+08, gap 0.0014%

Gurobi 7.5.1 (win64) logging started 02/27/18 14:44:28

Academic license - for non-commercial use only
Optimize a model with 35 rows, 198058 columns and 2508908 nonzeros
Variable types: 0 continuous, 198058 integer (198058 binary)
Coefficient statistics:
  Matrix range     [2e-09, 4e+07]
  Objective range  [7e-07, 1e+04]
  Bounds range     [1e+00, 1e+00]
  RHS range        [1e+04, 2e+04]
Warning: Model contains large matrix coefficient range
         Consider reformulating model or setting NumericFocus parameter
         to avoid numerical issues.
Found heuristic solution: objective 5654.17
Presolve removed 30 rows and 186636 columns
Presolve time: 0.30s
Presolved: 5 rows, 11422 columns, 57104 nonzeros
Variable types: 0 continuous, 11422 integer (11422 binary)
Presolved: 5 rows, 11422 columns, 57104 nonzeros


Root relaxation: objective 3.089193e+03, 12 iterations, 0.03 seconds

    Nodes    |    Current Node    |     Objective Bounds      |     Work
 Expl Unexpl |  Obj  Depth IntInf | Incumbent    BestBd   Gap | It/Node Time

     0     0 3089.19308    0    2 5654.17113 3089.19308  45.4%     -    0s
H    0     0                    3089.4351233 3089.19308  0.01%     -    0s

Explored 1 nodes (12 simplex iterations) in 0.58 seconds
Thread count was 16 (of 16 available processors)

Solution count 2: 3089.44 5654.17 

Optimal solution found (tolerance 1.00e-04)
Best objective 3.089435123292e+03, best bound 3.089193080892e+03, gap 0.0078%

Gurobi 7.5.1 (win64) logging started 02/27/18 14:44:51

Academic license - for non-commercial use only
Optimize a model with 36 rows, 198058 columns and 2509506 nonzeros
Variable types: 0 continuous, 198058 integer (198058 binary)
Coefficient statistics:
  Matrix range     [2e-09, 4e+07]
  Objective range  [3e+00, 1e+08]
  Bounds range     [1e+00, 1e+00]
  RHS range        [1e+03, 2e+04]
Warning: Model contains large matrix coefficient range
         Consider reformulating model or setting NumericFocus parameter
         to avoid numerical issues.
Found heuristic solution: objective 2.73386e+09
Presolve removed 31 rows and 187232 columns
Presolve time: 0.27s
Presolved: 5 rows, 10826 columns, 54124 nonzeros
Variable types: 0 continuous, 10826 integer (10826 binary)
Presolved: 5 rows, 10826 columns, 54124 nonzeros


Root relaxation: objective 1.855398e+08, 3 iterations, 0.02 seconds

    Nodes    |    Current Node    |     Objective Bounds      |     Work
 Expl Unexpl |  Obj  Depth IntInf | Incumbent    BestBd   Gap | It/Node Time

     0     0 1.8554e+08    0    2 2.7339e+09 1.8554e+08  93.2%     -    0s
H    0     0                    1.860524e+08 1.8554e+08  0.28%     -    0s
H    0     0                    1.855888e+08 1.8554e+08  0.03%     -    0s
H    0     0                    1.855514e+08 1.8554e+08  0.01%     -    0s

Explored 1 nodes (3 simplex iterations) in 0.57 seconds
Thread count was 16 (of 16 available processors)

Solution count 4: 1.85551e+08 1.85589e+08 1.86052e+08 2.73386e+09 

Optimal solution found (tolerance 1.00e-04)
Best objective 1.855514151780e+08, best bound 1.855397601753e+08, gap 0.0063%

Gurobi 7.5.1 (win64) logging started 02/27/18 14:44:52

Academic license - for non-commercial use only
Optimize a model with 36 rows, 198058 columns and 2509506 nonzeros
Variable types: 0 continuous, 198058 integer (198058 binary)
Coefficient statistics:
  Matrix range     [2e-09, 4e+07]
  Objective range  [9e-01, 4e+07]
  Bounds range     [1e+00, 1e+00]
  RHS range        [1e+03, 2e+04]
Warning: Model contains large matrix coefficient range
         Consider reformulating model or setting NumericFocus parameter
         to avoid numerical issues.
Found heuristic solution: objective 2.42685e+08
Presolve removed 31 rows and 187232 columns
Presolve time: 0.27s
Presolved: 5 rows, 10826 columns, 54124 nonzeros
Variable types: 0 continuous, 10826 integer (10826 binary)
Presolved: 5 rows, 10826 columns, 54124 nonzeros


Root relaxation: objective 1.727265e+08, 20 iterations, 0.02 seconds

    Nodes    |    Current Node    |     Objective Bounds      |     Work
 Expl Unexpl |  Obj  Depth IntInf | Incumbent    BestBd   Gap | It/Node Time

     0     0 1.7273e+08    0    3 2.4268e+08 1.7273e+08  28.8%     -    0s
H    0     0                    1.727295e+08 1.7273e+08  0.00%     -    0s

Explored 1 nodes (20 simplex iterations) in 0.54 seconds
Thread count was 16 (of 16 available processors)

Solution count 2: 1.72729e+08 2.42685e+08 

Optimal solution found (tolerance 1.00e-04)
Best objective 1.727294895213e+08, best bound 1.727265043560e+08, gap 0.0017%

Gurobi 7.5.1 (win64) logging started 02/27/18 14:44:54

Academic license - for non-commercial use only
Optimize a model with 36 rows, 198058 columns and 2509506 nonzeros
Variable types: 0 continuous, 198058 integer (198058 binary)
Coefficient statistics:
  Matrix range     [2e-09, 4e+07]
  Objective range  [7e-07, 1e+04]
  Bounds range     [1e+00, 1e+00]
  RHS range        [1e+03, 2e+04]
Warning: Model contains large matrix coefficient range
         Consider reformulating model or setting NumericFocus parameter
         to avoid numerical issues.
Found heuristic solution: objective 2559.31
Presolve removed 31 rows and 187232 columns
Presolve time: 0.28s
Presolved: 5 rows, 10826 columns, 54124 nonzeros
Variable types: 0 continuous, 10826 integer (10826 binary)
Presolved: 5 rows, 10826 columns, 54124 nonzeros


Root relaxation: objective 1.432998e+03, 8 iterations, 0.02 seconds

    Nodes    |    Current Node    |     Objective Bounds      |     Work
 Expl Unexpl |  Obj  Depth IntInf | Incumbent    BestBd   Gap | It/Node Time

     0     0 1432.99760    0    2 2559.30869 1432.99760  44.0%     -    0s
H    0     0                    1433.0688260 1432.99760  0.00%     -    0s

Explored 1 nodes (8 simplex iterations) in 0.56 seconds
Thread count was 16 (of 16 available processors)

Solution count 2: 1433.07 2559.31 

Optimal solution found (tolerance 1.00e-04)
Best objective 1.433068826002e+03, best bound 1.432997598956e+03, gap 0.0050%

Gurobi 7.5.1 (win64) logging started 02/27/18 14:44:55

Academic license - for non-commercial use only
Optimize a model with 35 rows, 198058 columns and 2508908 nonzeros
Variable types: 0 continuous, 198058 integer (198058 binary)
Coefficient statistics:
  Matrix range     [2e-09, 4e+07]
  Objective range  [3e+00, 1e+08]
  Bounds range     [1e+00, 1e+00]
  RHS range        [1e+04, 2e+04]
Warning: Model contains large matrix coefficient range
         Consider reformulating model or setting NumericFocus parameter
         to avoid numerical issues.
Found heuristic solution: objective 6.62989e+09
Presolve removed 30 rows and 186636 columns
Presolve time: 0.30s
Presolved: 5 rows, 11422 columns, 57104 nonzeros
Variable types: 0 continuous, 11422 integer (11422 binary)
Presolved: 5 rows, 11422 columns, 57104 nonzeros


Root relaxation: objective 5.322426e+08, 3 iterations, 0.02 seconds

    Nodes    |    Current Node    |     Objective Bounds      |     Work
 Expl Unexpl |  Obj  Depth IntInf | Incumbent    BestBd   Gap | It/Node Time

     0     0 5.3224e+08    0    2 6.6299e+09 5.3224e+08  92.0%     -    0s
H    0     0                    5.466914e+08 5.3224e+08  2.64%     -    0s
H    0     0                    5.327015e+08 5.3224e+08  0.09%     -    0s
H    0     0                    5.326837e+08 5.3224e+08  0.08%     -    0s
H    0     0                    5.326807e+08 5.3224e+08  0.08%     -    0s
     0     0 5.3237e+08    0    3 5.3268e+08 5.3237e+08  0.06%     -    1s
     0     0 5.3237e+08    0    2 5.3268e+08 5.3237e+08  0.06%     -    1s
     0     0 5.3237e+08    0    3 5.3268e+08 5.3237e+08  0.06%     -    1s
H    0     0                    5.326780e+08 5.3237e+08  0.06%     -    1s
     0     0 5.3243e+08    0    4 5.3268e+08 5.3243e+08  0.05%     -    1s
     0     0 5.3243e+08    0    2 5.3268e+08 5.3243e+08  0.05%     -    1s
     0     0 5.3243e+08    0    3 5.3268e+08 5.3243e+08  0.05%     -    1s
     0     0 5.3243e+08    0    4 5.3268e+08 5.3243e+08  0.05%     -    1s
     0     0 5.3243e+08    0    5 5.3268e+08 5.3243e+08  0.05%     -    1s
     0     0 5.3243e+08    0    2 5.3268e+08 5.3243e+08  0.05%     -    1s
     0     0 5.3243e+08    0    3 5.3268e+08 5.3243e+08  0.05%     -    1s
     0     0 5.3243e+08    0    4 5.3268e+08 5.3243e+08  0.05%     -    1s
     0     0 5.3243e+08    0    5 5.3268e+08 5.3243e+08  0.05%     -    1s
     0     0 5.3244e+08    0    6 5.3268e+08 5.3244e+08  0.05%     -    1s
     0     0 5.3244e+08    0    7 5.3268e+08 5.3244e+08  0.05%     -    1s
     0     0 5.3246e+08    0    7 5.3268e+08 5.3246e+08  0.04%     -    1s
     0     0 5.3265e+08    0    2 5.3268e+08 5.3265e+08  0.01%     -    1s

Cutting planes:
  MIR: 5

Explored 1 nodes (58 simplex iterations) in 1.78 seconds
Thread count was 16 (of 16 available processors)

Solution count 6: 5.32678e+08 5.32681e+08 5.32684e+08 ... 6.62989e+09

Optimal solution found (tolerance 1.00e-04)
Best objective 5.326780264634e+08, best bound 5.326479787467e+08, gap 0.0056%

Gurobi 7.5.1 (win64) logging started 02/27/18 14:44:58

Academic license - for non-commercial use only
Optimize a model with 35 rows, 198058 columns and 2508908 nonzeros
Variable types: 0 continuous, 198058 integer (198058 binary)
Coefficient statistics:
  Matrix range     [2e-09, 4e+07]
  Objective range  [9e-01, 4e+07]
  Bounds range     [1e+00, 1e+00]
  RHS range        [1e+04, 2e+04]
Warning: Model contains large matrix coefficient range
         Consider reformulating model or setting NumericFocus parameter
         to avoid numerical issues.
Found heuristic solution: objective 5.49511e+08
Presolve removed 30 rows and 186636 columns
Presolve time: 0.30s
Presolved: 5 rows, 11422 columns, 57104 nonzeros
Variable types: 0 continuous, 11422 integer (11422 binary)
Presolved: 5 rows, 11422 columns, 57104 nonzeros


Root relaxation: objective 3.639897e+08, 20 iterations, 0.03 seconds

    Nodes    |    Current Node    |     Objective Bounds      |     Work
 Expl Unexpl |  Obj  Depth IntInf | Incumbent    BestBd   Gap | It/Node Time

     0     0 3.6399e+08    0    4 5.4951e+08 3.6399e+08  33.8%     -    0s
H    0     0                    3.640708e+08 3.6399e+08  0.02%     -    0s
H    0     0                    3.640453e+08 3.6399e+08  0.02%     -    0s
H    0     0                    3.639949e+08 3.6399e+08  0.00%     -    0s

Explored 1 nodes (20 simplex iterations) in 0.68 seconds
Thread count was 16 (of 16 available processors)

Solution count 4: 3.63995e+08 3.64045e+08 3.64071e+08 5.49511e+08 

Optimal solution found (tolerance 1.00e-04)
Best objective 3.639948775219e+08, best bound 3.639896648616e+08, gap 0.0014%

Gurobi 7.5.1 (win64) logging started 02/27/18 14:44:59

Academic license - for non-commercial use only
Optimize a model with 35 rows, 198058 columns and 2508908 nonzeros
Variable types: 0 continuous, 198058 integer (198058 binary)
Coefficient statistics:
  Matrix range     [2e-09, 4e+07]
  Objective range  [7e-07, 1e+04]
  Bounds range     [1e+00, 1e+00]
  RHS range        [1e+04, 2e+04]
Warning: Model contains large matrix coefficient range
         Consider reformulating model or setting NumericFocus parameter
         to avoid numerical issues.
Found heuristic solution: objective 5654.17
Presolve removed 30 rows and 186636 columns
Presolve time: 0.29s
Presolved: 5 rows, 11422 columns, 57104 nonzeros
Variable types: 0 continuous, 11422 integer (11422 binary)
Presolved: 5 rows, 11422 columns, 57104 nonzeros


Root relaxation: objective 3.089193e+03, 12 iterations, 0.02 seconds

    Nodes    |    Current Node    |     Objective Bounds      |     Work
 Expl Unexpl |  Obj  Depth IntInf | Incumbent    BestBd   Gap | It/Node Time

     0     0 3089.19308    0    2 5654.17113 3089.19308  45.4%     -    0s
H    0     0                    3089.4351233 3089.19308  0.01%     -    0s

Explored 1 nodes (12 simplex iterations) in 0.57 seconds
Thread count was 16 (of 16 available processors)

Solution count 2: 3089.44 5654.17 

Optimal solution found (tolerance 1.00e-04)
Best objective 3.089435123292e+03, best bound 3.089193080892e+03, gap 0.0078%
